Mack/Bortfeldt(2008)
Bin-Packing-Problem
BP-RG/SBSBPP/SSSCSP
Testcase-ID	3
Problem-ID	37
no_item_types	10
no_items	1405
CONTAINER_DATA (l,w,h)	485	131	118
ITEMS_DATA:
Type	x	y	z	no_items
1	118	79	51	132
2	95	60	55	146
3	80	66	52	148
4	84	70	35	169
5	64	58	52	129
6	109	73	23	147
7	76	57	36	138
8	64	55	43	134
9	86	32	31	124
10	42	42	32	138
